
Gurobi 9.0.1 (linux64) logging started Thu Apr 30 19:16:59 2020

Gurobi Optimizer version 9.0.1 build v9.0.1rc0 (linux64)
Optimize a model with 32222 rows, 27380 columns and 603960 nonzeros
Model fingerprint: 0x3c925016
Variable types: 0 continuous, 27380 integer (27342 binary)
Coefficient statistics:
  Matrix range     [1e+00, 2e+01]
  Objective range  [3e+00, 1e+02]
  Bounds range     [1e+00, 1e+00]
  RHS range        [1e+00, 1e+00]

User MIP start produced solution with objective 1186 (0.83s)
Loaded user MIP start with objective 1186

Presolve removed 14186 rows and 9389 columns (presolve time = 5s) ...
Presolve removed 14228 rows and 9449 columns
Presolve time: 9.53s
Presolved: 17994 rows, 17931 columns, 501020 nonzeros
Variable types: 0 continuous, 17931 integer (17895 binary)

Root simplex log...

Iteration    Objective       Primal Inf.    Dual Inf.      Time
       0    0.0000000e+00   1.940000e+02   0.000000e+00     12s
    2550    5.3613341e+02   9.841744e+03   0.000000e+00     15s
    4376    5.4088709e+02   1.311216e+03   0.000000e+00     20s
    5787    5.4909462e+02   1.554256e+04   0.000000e+00     25s
    7198    5.5548120e+02   7.796084e+03   0.000000e+00     30s
    8443    5.6084704e+02   3.526549e+03   0.000000e+00     35s
    9605    5.6380637e+02   1.144833e+04   0.000000e+00     40s
   10684    5.6527819e+02   6.004656e+03   0.000000e+00     45s
   11763    5.6728286e+02   3.861855e+04   0.000000e+00     50s
   12842    5.7055776e+02   2.101931e+04   0.000000e+00     55s
   13755    5.7103054e+02   5.852996e+03   0.000000e+00     60s
   14751    5.7286183e+02   1.034057e+04   0.000000e+00     65s
   15661    5.7377133e+02   1.846073e+04   0.000000e+00     70s
   16657    5.7474175e+02   6.419163e+03   0.000000e+00     75s
   17653    5.7617495e+02   2.034642e+03   0.000000e+00     80s
   18566    5.7641202e+02   5.496265e+03   0.000000e+00     85s
   19396    5.7682800e+02   2.705224e+03   0.000000e+00     90s
   20226    5.7742265e+02   4.513979e+03   0.000000e+00     95s
   21056    5.7794065e+02   2.397680e+03   0.000000e+00    100s
   21886    5.7844191e+02   8.743033e+03   0.000000e+00    105s
   22633    5.7906845e+02   1.641431e+03   0.000000e+00    110s
   23297    5.7972992e+02   2.763777e+03   0.000000e+00    115s
   24127    5.8029256e+02   8.412329e+02   0.000000e+00    121s
   24791    5.8061768e+02   3.590718e+02   0.000000e+00    126s
   25455    5.8075789e+02   6.524554e+02   0.000000e+00    131s
   25757    5.8079477e+02   0.000000e+00   0.000000e+00    133s

Root relaxation: objective 5.807948e+02, 25757 iterations, 122.63 seconds

    Nodes    |    Current Node    |     Objective Bounds      |     Work
 Expl Unexpl |  Obj  Depth IntInf | Incumbent    BestBd   Gap | It/Node Time

     0     0  580.79477    0 2435 1186.00000  580.79477  51.0%     -  142s
     0     0  620.79666    0 2424 1186.00000  620.79666  47.7%     -  252s
     0     0  621.39088    0 2378 1186.00000  621.39088  47.6%     -  279s
     0     0  621.66816    0 2399 1186.00000  621.66816  47.6%     -  294s
     0     0  621.70647    0 2413 1186.00000  621.70647  47.6%     -  299s
     0     0  621.70681    0 2415 1186.00000  621.70681  47.6%     -  301s
     0     0  637.75561    0 2465 1186.00000  637.75561  46.2%     -  423s
     0     0  638.06963    0 2496 1186.00000  638.06963  46.2%     -  448s
     0     0  638.08891    0 2494 1186.00000  638.08891  46.2%     -  453s
     0     0  638.09235    0 2495 1186.00000  638.09235  46.2%     -  456s
     0     0  644.66563    0 2485 1186.00000  644.66563  45.6%     -  587s
     0     0  645.13163    0 2491 1186.00000  645.13163  45.6%     -  617s
     0     0  645.16036    0 2502 1186.00000  645.16036  45.6%     -  623s
     0     0  645.16585    0 2500 1186.00000  645.16585  45.6%     -  627s
     0     0  648.80127    0 2540 1186.00000  648.80127  45.3%     -  749s
     0     0  649.45510    0 2541 1186.00000  649.45510  45.2%     -  794s
     0     0  649.49679    0 2548 1186.00000  649.49679  45.2%     -  802s
     0     0  649.51472    0 2543 1186.00000  649.51472  45.2%     -  808s
     0     0  649.51688    0 2560 1186.00000  649.51688  45.2%     -  811s
     0     0  650.33860    0 2546 1186.00000  650.33860  45.2%     -  857s
     0     0  650.41895    0 2537 1186.00000  650.41895  45.2%     -  889s
     0     0  650.44517    0 2546 1186.00000  650.44517  45.2%     -  895s
     0     0  650.45452    0 2563 1186.00000  650.45452  45.2%     -  900s
     0     0  651.08010    0 2533 1186.00000  651.08010  45.1%     -  937s
     0     0  651.13393    0 2552 1186.00000  651.13393  45.1%     -  971s
     0     0  651.15052    0 2529 1186.00000  651.15052  45.1%     -  977s
     0     0  651.16062    0 2551 1186.00000  651.16062  45.1%     -  982s
     0     0  652.24330    0 2558 1186.00000  652.24330  45.0%     - 1040s
     0     0  652.33349    0 2557 1186.00000  652.33349  45.0%     - 1090s
     0     0  652.34703    0 2556 1186.00000  652.34703  45.0%     - 1097s
     0     0  652.97825    0 2547 1186.00000  652.97825  44.9%     - 1150s
     0     0  653.05348    0 2557 1186.00000  653.05348  44.9%     - 1168s
     0     0  653.07260    0 2584 1186.00000  653.07260  44.9%     - 1175s
     0     0  653.07518    0 2581 1186.00000  653.07518  44.9%     - 1179s
     0     0  653.54427    0 2537 1186.00000  653.54427  44.9%     - 1218s
     0     0  653.65155    0 2547 1186.00000  653.65155  44.9%     - 1237s
     0     0  653.68456    0 2566 1186.00000  653.68456  44.9%     - 1245s
     0     0  653.69196    0 2576 1186.00000  653.69196  44.9%     - 1250s
     0     0  653.87239    0 2555 1186.00000  653.87239  44.9%     - 1276s
     0     0  653.92627    0 2560 1186.00000  653.92627  44.9%     - 1289s
     0     0  653.93927    0 2573 1186.00000  653.93927  44.9%     - 1294s
     0     0  655.04325    0 2565 1186.00000  655.04325  44.8%     - 1348s
     0     0  655.19835    0 2580 1186.00000  655.19835  44.8%     - 1371s
     0     0  655.23881    0 2565 1186.00000  655.23881  44.8%     - 1382s
     0     0  655.24871    0 2582 1186.00000  655.24871  44.8%     - 1388s
     0     0  656.13179    0 2580 1186.00000  656.13179  44.7%     - 1437s
     0     0  656.20450    0 2562 1186.00000  656.20450  44.7%     - 1453s
     0     0  656.22766    0 2564 1186.00000  656.22766  44.7%     - 1460s
     0     0  656.23331    0 2587 1186.00000  656.23331  44.7%     - 1465s
     0     0  656.49725    0 2590 1186.00000  656.49725  44.6%     - 1496s
     0     0  656.58238    0 2579 1186.00000  656.58238  44.6%     - 1562s
     0     0  656.61546    0 2571 1186.00000  656.61546  44.6%     - 1570s
     0     0  656.62404    0 2584 1186.00000  656.62404  44.6%     - 1575s
     0     0  657.03008    0 2575 1186.00000  657.03008  44.6%     - 1613s
     0     0  657.08271    0 2567 1186.00000  657.08271  44.6%     - 1633s
     0     0  657.09649    0 2583 1186.00000  657.09649  44.6%     - 1641s
     0     0  657.42966    0 2562 1186.00000  657.42966  44.6%     - 1681s
     0     0  657.52209    0 2579 1186.00000  657.52209  44.6%     - 1700s
     0     0  657.54577    0 2586 1186.00000  657.54577  44.6%     - 1709s
     0     0  657.55324    0 2592 1186.00000  657.55324  44.6%     - 1714s
     0     0  657.67112    0 2542 1186.00000  657.67112  44.5%     - 1746s
     0     0  657.69197    0 2552 1186.00000  657.69197  44.5%     - 1758s
     0     0  657.75008    0 2553 1186.00000  657.75008  44.5%     - 1778s
     0     0  657.78589    0 2553 1186.00000  657.78589  44.5%     - 1794s
     0     0  657.79327    0 2559 1186.00000  657.79327  44.5%     - 1800s
     0     0  658.06758    0 2545 1186.00000  658.06758  44.5%     - 1831s
     0     0  658.12352    0 2569 1186.00000  658.12352  44.5%     - 1846s
     0     0  658.13877    0 2567 1186.00000  658.13877  44.5%     - 1853s
     0     0  658.38150    0 2545 1186.00000  658.38150  44.5%     - 1882s
     0     0  658.43995    0 2550 1186.00000  658.43995  44.5%     - 1898s
     0     0  658.45468    0 2558 1186.00000  658.45468  44.5%     - 1904s
     0     0  658.89805    0 2536 1186.00000  658.89805  44.4%     - 1945s
     0     0  658.95342    0 2537 1186.00000  658.95342  44.4%     - 1960s
     0     0  658.97836    0 2545 1186.00000  658.97836  44.4%     - 1967s
     0     0  658.98784    0 2545 1186.00000  658.98784  44.4%     - 1972s
     0     0  659.45742    0 2575 1186.00000  659.45742  44.4%     - 2013s
     0     0  659.50133    0 2578 1186.00000  659.50133  44.4%     - 2026s
     0     0  659.51981    0 2570 1186.00000  659.51981  44.4%     - 2033s
     0     0  659.77971    0 2578 1186.00000  659.77971  44.4%     - 2065s
     0     0  659.83126    0 2590 1186.00000  659.83126  44.4%     - 2081s
     0     0  659.83745    0 2590 1186.00000  659.83745  44.4%     - 2086s
     0     0  660.36815    0 2591 1186.00000  660.36815  44.3%     - 2133s
     0     0  660.43208    0 2604 1186.00000  660.43208  44.3%     - 2151s
     0     0  660.46194    0 2599 1186.00000  660.46194  44.3%     - 2160s
     0     0  660.47085    0 2603 1186.00000  660.47085  44.3%     - 2165s
     0     0  660.76653    0 2594 1186.00000  660.76653  44.3%     - 2200s
     0     0  660.79312    0 2593 1186.00000  660.79312  44.3%     - 2215s
     0     0  660.80093    0 2605 1186.00000  660.80093  44.3%     - 2220s
     0     0  661.11653    0 2576 1186.00000  661.11653  44.3%     - 2260s
     0     0  661.23058    0 2577 1186.00000  661.23058  44.2%     - 2356s
     0     0  661.25540    0 2590 1186.00000  661.25540  44.2%     - 2365s
     0     0  661.44434    0 2602 1186.00000  661.44434  44.2%     - 2396s
     0     0  661.57410    0 2597 1186.00000  661.57410  44.2%     - 2418s
     0     0  661.62539    0 2600 1186.00000  661.62539  44.2%     - 2430s
     0     0  661.63181    0 2614 1186.00000  661.63181  44.2%     - 2435s
     0     0  661.83855    0 2596 1186.00000  661.83855  44.2%     - 2467s
     0     0  661.90741    0 2596 1186.00000  661.90741  44.2%     - 2483s
     0     0  661.92733    0 2605 1186.00000  661.92733  44.2%     - 2490s
     0     0  662.01949    0 2627 1186.00000  662.01949  44.2%     - 2512s
     0     0  662.01949    0 2626 1186.00000  662.01949  44.2%     - 2533s
     0     2  662.02337    0 2620 1186.00000  662.02337  44.2%     - 2957s
     1     3  678.87124    1 2393 1186.00000  662.02337  44.2% 39134 3369s
     2     4  662.65596    1 2597 1186.00000  662.65596  44.1% 21206 3404s
     3     5  667.34240    2 2580 1186.00000  662.65729  44.1% 16734 3492s

Cutting planes:
  Cover: 1
  MIR: 109
  StrongCG: 17
  Zero half: 26
  Mod-K: 21
  RLT: 1257

Explored 4 nodes (247906 simplex iterations) in 3600.02 seconds
Thread count was 1 (of 40 available processors)

Solution count 1: 1186 

Time limit reached
Best objective 1.186000000000e+03, best bound 6.630000000000e+02, gap 44.0978%

User-callback calls 52855, time in user-callback 0.15 sec
